NAME: tsp20_10
COMMENT: 20-tsp problem (Padberg/Rinaldi)
TYPE: TSP
DIMENSION: 20
EDGE_WEIGHT_TYPE : EUC_2D
NODE_COORD_SECTION
1 5 29
2 19 10
3 3 36
4 12 19
5 0 32
6 31 35
7 21 21
8 4 9
9 4 5
10 39 21
11 17 29
12 9 36
13 8 21
14 21 28
15 19 10
16 17 15
17 33 33
18 0 9
19 13 29
20 35 1
